CMPL model generation - running

CMPL version: 1.11.0
Authors: Thomas Schleiff, Mike Steglich
Distributed under the GPLv3 

create model instance ...
write model instance ...
CMPL model generation - finished

Solver - running


Welcome to IBM(R) ILOG(R) CPLEX(R) Interactive Optimizer 12.7.1.0
  with Simplex, Mixed Integer & Barrier Optimizers
5725-A06 5725-A29 5724-Y48 5724-Y49 5724-Y54 5724-Y55 5655-Y21
Copyright IBM Corp. 1988, 2017.  All Rights Reserved.

Type 'help' for a list of available commands.
Type 'help' followed by a command name for more
information on commands.

CPLEX> Specified objective sense: MINIMIZE
Selected objective  name:  line[1]
Selected RHS        name:  RHS
Selected bound      name:  BOUND
Problem '/tmp/cmpl.T24647.mps' read.
Read time = 0.05 sec. (8.19 ticks)
CPLEX> CPXPARAM_Read_APIEncoding                        "UTF-8"
Tried aggregator 3 times.
MIP Presolve eliminated 19039 rows and 30316 columns.
MIP Presolve modified 340 coefficients.
Aggregator did 775 substitutions.
Reduced MIP has 2541 rows, 3502 columns, and 10206 nonzeros.
Reduced MIP has 3334 binaries, 0 generals, 0 SOSs, and 0 indicators.
Presolve time = 0.05 sec. (40.93 ticks)
Found incumbent of value 1927.403048 after 0.11 sec. (68.87 ticks)
Probing fixed 28 vars, tightened 0 bounds.
Probing time = 0.01 sec. (4.61 ticks)
Tried aggregator 1 time.
MIP Presolve eliminated 0 rows and 28 columns.
MIP Presolve modified 180 coefficients.
Reduced MIP has 2541 rows, 3474 columns, and 10150 nonzeros.
Reduced MIP has 3474 binaries, 0 generals, 0 SOSs, and 0 indicators.
Presolve time = 0.01 sec. (9.94 ticks)
Probing time = 0.01 sec. (2.70 ticks)
Clique table members: 6319.
MIP emphasis: balance optimality and feasibility.
MIP search method: dynamic search.
Parallel mode: none, using 1 thread.
Root relaxation solution time = 0.01 sec. (9.03 ticks)

        Nodes                                         Cuts/
   Node  Left     Objective  IInf  Best Integer    Best Bound    ItCnt     Gap

*     0+    0                         1927.4030       -6.0328           100.31%
*     0     0      integral     0      500.3775      500.3775      397    0.00%
Elapsed time = 0.17 sec. (103.21 ticks, tree = 0.00 MB, solutions = 2)

Root node processing (before b&c):
  Real time             =    0.17 sec. (104.45 ticks)
Sequential b&c:
  Real time             =    0.00 sec. (0.00 ticks)
                          ------------
Total (root+branch&cut) =    0.17 sec. (104.45 ticks)

Solution pool: 2 solutions saved.

MIP - Integer optimal solution:  Objective =  5.0037751600e+02
Solution time =    0.17 sec.  Iterations = 397  Nodes = 0
Deterministic time = 104.55 ticks  (622.12 ticks/sec)

CPLEX> Incumbent solution written to file '/tmp/cmpl.T24647.gsol'.
CPLEX> 
CMPL: Time used for model generation: 1 seconds
CMPL: Time used for solving the model: 1 seconds


Solution written to ASCII file: results/output_generated_conf_0.8/2017-04-03-4/fair-nonlinear.sol

Solver - finished
